RT is False
Default write of storage_offers_DA.csv just to have a file (but constraint should be inactive)
Reading model...
...model read.
creating competitive generators file...
...competitive generators recorded.
Loading data...
.. day-ahead data with real-time VRE data read.
Compiling instance...
...instance created.
Creating Offer Mitigation (model will solve as dispatch if TRUE)...
Solving...

Welcome to IBM(R) ILOG(R) CPLEX(R) Interactive Optimizer 12.9.0.0
  with Simplex, Mixed Integer & Barrier Optimizers
5725-A06 5725-A29 5724-Y48 5724-Y49 5724-Y54 5724-Y55 5655-Y21
Copyright IBM Corp. 1988, 2019.  All Rights Reserved.

Type 'help' for a list of available commands.
Type 'help' followed by a command name for more
information on commands.

CPLEX> Logfile 'cplex.log' closed.
Logfile 'C:\Users\Luke\Desktop\test919\logs\tmpuutlkqdk.cplex.log' open.
CPLEX> New value for parallel optimization mode: -1
CPLEX> New value for emphasis for MIP optimization: 1
CPLEX> New value for mixed integer optimality gap tolerance: 0.01
CPLEX> New value for integrality tolerance: 1e-12
CPLEX> New value for deterministic time limit in ticks: 75000
CPLEX> Problem 'C:\Users\Luke\Desktop\test919\logs\tmp_qm3x9o3.pyomo.lp' read.
Read time = 0.05 sec. (3.05 ticks)
CPLEX> Problem name         : C:\Users\Luke\Desktop\test919\logs\tmp_qm3x9o3.pyomo.lp
Objective sense      : Minimize
Variables            :   26085  [Nneg: 1,  Box: 21620,  Free: 4464]
Objective nonzeros   :    2496
Linear constraints   :   27563  [Less: 14006,  Greater: 4416,  Equal: 9141]
  Nonzeros           :   90683
  RHS nonzeros       :   12271

Variables            : Min LB: -5000.000        Max UB: 1000000.       
Objective nonzeros   : Min   : 15.73158         Max   : 124.0997       
Linear constraints   :
  Nonzeros           : Min   : 0.8500000        Max   : 3000.000       
  RHS nonzeros       : Min   : 0.07500000       Max   : 5000.000       
CPLEX> CPXPARAM_Parallel                                -1
CPXPARAM_Emphasis_MIP                            1
CPXPARAM_DetTimeLimit                            75000
CPXPARAM_MIP_Tolerances_MIPGap                   0.01
CPXPARAM_MIP_Tolerances_Integrality              9.9999999999999998e-13
Parallel mode: opportunistic, using up to 12 threads for concurrent optimization.
Tried aggregator 1 time.
LP Presolve eliminated 21384 rows and 15495 columns.
Aggregator did 759 substitutions.
Reduced LP has 5420 rows, 9831 columns, and 32568 nonzeros.
Presolve time = 0.05 sec. (30.61 ticks)
Symmetry aggregator did 5659 additional substitutions.
Initializing dual steep norms . . .

Iteration log . . .
Iteration:     1   Dual objective     =             0.000000
Perturbation started.
Iteration:   101   Dual objective     =             0.000000
Iteration:   339   Dual objective     =            48.105576
Iteration:   533   Dual objective     =            61.515146
Iteration:   749   Dual objective     =            61.992740
Iteration:   942   Dual objective     =        325894.787920
Iteration:  1110   Dual objective     =        331963.596892
Removing perturbation.

Dual crossover.
  Dual:  Fixing 2 variables.
        1 DMoves:  Infeasibility  6.75015599e-14  Objective  3.32826044e+05
        0 DMoves:  Infeasibility  6.75015599e-14  Objective  3.32826044e+05
  Dual:  Pushed 0, exchanged 2.
  Primal:  Fixing 11 variables.
       10 PMoves:  Infeasibility  1.39988288e-09  Objective  3.32826044e+05
        0 PMoves:  Infeasibility  1.39988288e-09  Objective  3.32826044e+05
  Primal:  Pushed 11, exchanged 0.

Dual simplex solved model.


Dual simplex - Optimal:  Objective =  3.3282604351e+05
Solution time =    0.13 sec.  Iterations = 1361 (0)
Deterministic time = 79.40 ticks  (635.24 ticks/sec)

CPLEX> Solution written to file 'C:\Users\Luke\Desktop\test919\logs\tmp9qrg7s9l.cplex.sol'.
CPLEX> Exporting results... 
...storage offer mitigation file created
Converting model to MPEC...
...converted
NOTE: initial MIP solve with only storage competitive to get feasible solution
Solving...

Welcome to IBM(R) ILOG(R) CPLEX(R) Interactive Optimizer 12.9.0.0
  with Simplex, Mixed Integer & Barrier Optimizers
5725-A06 5725-A29 5724-Y48 5724-Y49 5724-Y54 5724-Y55 5655-Y21
Copyright IBM Corp. 1988, 2019.  All Rights Reserved.

Type 'help' for a list of available commands.
Type 'help' followed by a command name for more
information on commands.

CPLEX> Logfile 'cplex.log' closed.
Logfile 'C:\Users\Luke\Desktop\test919\logs\tmp5od9de4w.cplex.log' open.
CPLEX> New value for parallel optimization mode: -1
CPLEX> New value for emphasis for MIP optimization: 1
CPLEX> New value for mixed integer optimality gap tolerance: 0.01
CPLEX> New value for integrality tolerance: 1e-12
CPLEX> New value for deterministic time limit in ticks: 75000
CPLEX> Problem 'C:\Users\Luke\Desktop\test919\logs\tmpmtm27y9p.pyomo.lp' read.
Read time = 0.20 sec. (13.88 ticks)
CPLEX> Problem name         : C:\Users\Luke\Desktop\test919\logs\tmpmtm27y9p.pyomo.lp
Objective sense      : Maximize
Variables            :   53809  [Nneg: 1,  Box: 22004,  Free: 4464,
                                 Binary: 27340]
Objective nonzeros   :    9029
Linear constraints   :  123253  [Less: 41346,  Greater: 59096,  Equal: 22811]
  Nonzeros           :  293217
  RHS nonzeros       :   67491

Variables            : Min LB: -5000.000        Max UB: 1000000.       
Objective nonzeros   : Min   : 0.07500000       Max   : 2500.000       
Linear constraints   :
  Nonzeros           : Min   : 0.07500000       Max   : 1000000.       
  RHS nonzeros       : Min   : 0.07500000       Max   : 1000000.       
CPLEX> CPXPARAM_Parallel                                -1
CPXPARAM_Emphasis_MIP                            1
CPXPARAM_DetTimeLimit                            75000
CPXPARAM_MIP_Tolerances_MIPGap                   0.01
CPXPARAM_MIP_Tolerances_Integrality              9.9999999999999998e-13
Tried aggregator 4 times.
MIP Presolve eliminated 88720 rows and 19023 columns.
MIP Presolve added 3374 rows and 0 columns.
MIP Presolve modified 24833 coefficients.
Aggregator did 12980 substitutions.
Reduced MIP has 24927 rows, 21250 columns, and 71711 nonzeros.
Reduced MIP has 8400 binaries, 0 generals, 0 SOSs, and 0 indicators.
Presolve time = 0.25 sec. (192.35 ticks)
Probing fixed 388 vars, tightened 3803 bounds.
Probing time = 0.05 sec. (18.81 ticks)
Tried aggregator 2 times.
MIP Presolve eliminated 874 rows and 776 columns.
MIP Presolve modified 3034 coefficients.
Aggregator did 34 substitutions.
Reduced MIP has 24019 rows, 20440 columns, and 69085 nonzeros.
Reduced MIP has 8012 binaries, 0 generals, 0 SOSs, and 0 indicators.
Presolve time = 0.11 sec. (87.52 ticks)
Probing fixed 0 vars, tightened 218 bounds.
Probing time = 0.13 sec. (22.71 ticks)
Clique table members: 45194.
MIP emphasis: integer feasibility.
MIP search method: dynamic search.
Parallel mode: opportunistic, using up to 12 threads.
Root relaxation solution time = 0.45 sec. (682.49 ticks)

        Nodes                                         Cuts/
   Node  Left     Objective  IInf  Best Integer    Best Bound    ItCnt     Gap

      0     0     3966.0625   130                   3966.0625     5553         
*     0+    0                         3964.3813     3966.0625             0.04%

Root node processing (before b&c):
  Real time             =    1.59 sec. (1383.57 ticks)
Parallel b&c, 12 threads:
  Real time             =    0.00 sec. (0.00 ticks)
  Sync time (average)   =    0.00 sec.
  Wait time (average)   =    0.00 sec.
                          ------------
Total (root+branch&cut) =    1.59 sec. (1383.57 ticks)

Solution pool: 1 solution saved.

MIP - Integer optimal, tolerance (0.01/1e-06):  Objective =  3.9643813170e+03
Current MIP best bound =  3.9660625444e+03 (gap = 1.68123, 0.04%)
Solution time =    1.59 sec.  Iterations = 5553  Nodes = 0 (1)
Deterministic time = 1383.73 ticks  (868.08 ticks/sec)

CPLEX> Incumbent solution written to file 'C:\Users\Luke\Desktop\test919\logs\tmpz43s77wy.cplex.sol'.
CPLEX> NOTE: no warmstart specified for MIP iteration, default behavior is true
NOTE: resolving with all competitive generators using storage-only solution to warmstart
Solving...

Welcome to IBM(R) ILOG(R) CPLEX(R) Interactive Optimizer 12.9.0.0
  with Simplex, Mixed Integer & Barrier Optimizers
5725-A06 5725-A29 5724-Y48 5724-Y49 5724-Y54 5724-Y55 5655-Y21
Copyright IBM Corp. 1988, 2019.  All Rights Reserved.

Type 'help' for a list of available commands.
Type 'help' followed by a command name for more
information on commands.

CPLEX> Logfile 'cplex.log' closed.
Logfile 'C:\Users\Luke\Desktop\test919\logs\tmpf0l6j95m.cplex.log' open.
CPLEX> New value for parallel optimization mode: -1
CPLEX> New value for emphasis for MIP optimization: 1
CPLEX> New value for mixed integer optimality gap tolerance: 0.01
CPLEX> New value for integrality tolerance: 1e-12
CPLEX> New value for deterministic time limit in ticks: 75000
CPLEX> Problem 'C:\Users\Luke\Desktop\test919\logs\tmp3ge__ump.pyomo.lp' read.
Read time = 0.19 sec. (13.91 ticks)
CPLEX> MIP start file 'C:\Users\Luke\Desktop\test919\logs\tmpse8wc8jx.cplex.mst' read.
CPLEX> Problem name         : C:\Users\Luke\Desktop\test919\logs\tmp3ge__ump.pyomo.lp
Objective sense      : Maximize
Variables            :   54529  [Nneg: 1,  Box: 22724,  Free: 4464,
                                 Binary: 27340]
Objective nonzeros   :    9725
Linear constraints   :  123253  [Less: 41346,  Greater: 59096,  Equal: 22811]
  Nonzeros           :  293217
  RHS nonzeros       :   67491

Variables            : Min LB: -5000.000        Max UB: 1000000.       
Objective nonzeros   : Min   : 0.07500000       Max   : 2500.000       
Linear constraints   :
  Nonzeros           : Min   : 0.07500000       Max   : 1000000.       
  RHS nonzeros       : Min   : 0.07500000       Max   : 1000000.       
CPLEX> CPXPARAM_Parallel                                -1
CPXPARAM_Emphasis_MIP                            1
CPXPARAM_DetTimeLimit                            75000
CPXPARAM_MIP_Tolerances_MIPGap                   0.01
CPXPARAM_MIP_Tolerances_Integrality              9.9999999999999998e-13
Warning:  No solution found from 1 MIP starts.
Retaining values of one MIP start for possible repair.
Tried aggregator 4 times.
MIP Presolve eliminated 88720 rows and 19743 columns.
MIP Presolve added 3374 rows and 0 columns.
MIP Presolve modified 24833 coefficients.
Aggregator did 12980 substitutions.
Reduced MIP has 24927 rows, 21250 columns, and 71711 nonzeros.
Reduced MIP has 8400 binaries, 0 generals, 0 SOSs, and 0 indicators.
Presolve time = 0.26 sec. (192.76 ticks)
Probing fixed 388 vars, tightened 3803 bounds.
Probing time = 0.05 sec. (18.81 ticks)
Tried aggregator 2 times.
MIP Presolve eliminated 874 rows and 776 columns.
MIP Presolve modified 3034 coefficients.
Aggregator did 34 substitutions.
Reduced MIP has 24019 rows, 20440 columns, and 69085 nonzeros.
Reduced MIP has 8012 binaries, 0 generals, 0 SOSs, and 0 indicators.
Presolve time = 0.11 sec. (87.53 ticks)
Probing fixed 0 vars, tightened 218 bounds.
Probing time = 0.13 sec. (22.71 ticks)
Clique table members: 45194.
MIP emphasis: integer feasibility.
MIP search method: dynamic search.
Parallel mode: opportunistic, using up to 12 threads.
Root relaxation solution time = 0.50 sec. (714.23 ticks)

        Nodes                                         Cuts/
   Node  Left     Objective  IInf  Best Integer    Best Bound    ItCnt     Gap

      0     0    74468.0692   193                  74468.0692     5950         
      0     0    74357.0887    50                    Cuts: 55     5986         
      0     0    74356.0904    50                    Cuts: 14     5995         
      0     0    74355.8064    51                     Cuts: 2     5997         
Repair heuristic found nothing.
      0    13    74338.2762    51                     Cuts: 2     6042         
Elapsed time = 3.64 sec. (2043.68 ticks, tree = 0.02 MB, solutions = 0)
    243   162    73629.4750    41                  74337.6840     8273         
    562   424    40909.8043     8                  74337.6840    11127         
*   749   569      integral     0    62702.4913    74337.6840    13352   18.56%
    802   444        cutoff          62702.4913    74337.6840    15727   18.56%
   1009   469    63387.8689     4    62702.4913    74337.6840    17472   18.56%
   1259   609    63421.8371    24    62977.4756    74337.6840    18510   18.04%
   1513   665    63495.0392    10    62977.4756    74337.6840    18669   18.04%
   1819   865    63276.2960    12    62977.4756    74337.6840    19519   18.04%
   2175  1135    63494.9324    18    62977.4756    74337.6840    20794   18.04%
   2551  1514    63140.6135    12    62977.4756    74337.6840    22759   18.04%
   3890  2688    63186.2468    18    62977.4756    74337.6840    28598   18.04%
Elapsed time = 16.47 sec. (5149.60 ticks, tree = 22.09 MB, solutions = 2)
   4090  3045    63634.2410    36    62977.4756    63677.6147    40143    1.11%
*  4665   267      integral     0    63505.1325    63654.8830    41897    0.24%
   4693   302    63589.9170     9    63505.1325    63654.8830    42154    0.24%
*  4938   370      integral     0    63537.6198    63654.8830    42686    0.18%

Clique cuts applied:  3
Cover cuts applied:  8
Implied bound cuts applied:  14
Flow cuts applied:  33
Mixed integer rounding cuts applied:  13
Gomory fractional cuts applied:  6

Root node processing (before b&c):
  Real time             =    3.22 sec. (2007.92 ticks)
Parallel b&c, 12 threads:
  Real time             =   21.70 sec. (7180.61 ticks)
  Sync time (average)   =    0.64 sec.
  Wait time (average)   =    0.02 sec.
                          ------------
Total (root+branch&cut) =   24.92 sec. (9188.52 ticks)

Solution pool: 4 solutions saved.

MIP - Integer optimal, tolerance (0.01/1e-06):  Objective =  6.3537619804e+04
Current MIP best bound =  6.3654174884e+04 (gap = 116.555, 0.18%)
Solution time =   24.92 sec.  Iterations = 44738  Nodes = 4998 (206)
Deterministic time = 9188.68 ticks  (368.70 ticks/sec)

CPLEX> Incumbent solution written to file 'C:\Users\Luke\Desktop\test919\logs\tmppc8dsrue.cplex.sol'.
CPLEX> Exporting results... 
